; benchmark generated from python API
(set-info :status unknown)
(declare-fun x_month () Int)
(declare-fun x_day () Int)
(declare-fun x_year () Int)
(assert
 (>= x_month 1))
(assert
 (<= x_month 12))
(assert
 (>= x_day 1))
(assert
 (<= x_day 31))
(assert
 (let (($x4095 (<= x_day 28)))
 (let (($x1627 (<= x_day 29)))
 (let (($x2148 (= (mod x_year 400) 0)))
 (let (($x1152 (= (mod x_year 4) 0)))
 (let (($x250 (ite (or (and $x1152 (and (distinct (mod x_year 100) 0) true)) $x2148) $x1627 $x4095)))
 (let (($x2837 (= x_month 2)))
 (ite $x2837 $x250 true))))))))
(assert
 (let (($x4689 (<= x_day 30)))
 (let (($x3699 (or (= x_month 4) (= x_month 6) (= x_month 9) (= x_month 11))))
 (ite $x3699 $x4689 true))))
(assert
 (let (($x3950 (= x_year 2020)))
 (let (($x3995 (and $x3950 (or (> x_month 2) (and (= x_month 2) (>= x_day 28))))))
 (or (> x_year 2020) $x3995))))
(assert
 (let (($x3950 (= x_year 2020)))
 (let (($x2916 (and $x3950 (or (< x_month 3) (and (= x_month 3) (<= x_day 1))))))
 (or (< x_year 2020) $x2916))))
(assert
 (let ((?x3496 (+ (mod (- (+ x_month (+ (* 0 12) 0)) 1) 12) 1)))
 (let ((?x4635 (ite (or (= ?x3496 4) (= ?x3496 6) (= ?x3496 9) (= ?x3496 11)) 30 31)))
 (let ((?x4448 (+ 0 (div (- (+ x_month (+ (* 0 12) 0)) 1) 12))))
 (let ((?x3116 (+ x_year ?x4448)))
 (let (($x2291 (or (and (= (mod ?x3116 4) 0) (and (distinct (mod ?x3116 100) 0) true)) (= (mod ?x3116 400) 0))))
 (let ((?x4124 (ite (= ?x3496 2) (ite $x2291 29 28) ?x4635)))
 (let ((?x4672 (ite (< x_day 1) 1 (ite (> x_day ?x4124) ?x4124 x_day))))
 (let ((?x1919 (ite (< ?x4672 1) 1 (ite (> ?x4672 ?x4124) ?x4124 ?x4672))))
 (let ((?x3081 (ite (= 2 ?x3496) (ite $x2291 31 31) (ite (= 1 ?x3496) (ite $x2291 0 0) 0))))
 (let ((?x2152 (ite (= 4 ?x3496) (ite $x2291 91 90) (ite (= 3 ?x3496) (ite $x2291 60 59) ?x3081))))
 (let ((?x1455 (ite (= 6 ?x3496) (ite $x2291 152 151) (ite (= 5 ?x3496) (ite $x2291 121 120) ?x2152))))
 (let ((?x885 (ite (= 8 ?x3496) (ite $x2291 213 212) (ite (= 7 ?x3496) (ite $x2291 182 181) ?x1455))))
 (let ((?x2002 (ite (= 10 ?x3496) (ite $x2291 274 273) (ite (= 9 ?x3496) (ite $x2291 244 243) ?x885))))
 (let ((?x4798 (ite (= 12 ?x3496) (ite $x2291 335 334) (ite (= 11 ?x3496) (ite $x2291 305 304) ?x2002))))
 (let ((?x326 (- (+ (* 365 (- ?x3116 1)) (div (- ?x3116 1) 4)) (div (- ?x3116 1) 100))))
 (let ((?x4394 (- (+ (+ (+ ?x326 (div (- ?x3116 1) 400)) ?x4798) (- ?x1919 1)) 730179)))
 (let ((?x3550 (+ (+ ?x4394 1) 730179)))
 (let ((?x2819 (mod ?x3550 146097)))
 (let ((?x4705 (div ?x2819 36524)))
 (let ((?x4712 (ite (<= 4 ?x4705) 3 ?x4705)))
 (let ((?x3355 (- ?x2819 (* ?x4712 36524))))
 (let ((?x1565 (mod ?x3355 1461)))
 (let ((?x2437 (div ?x1565 365)))
 (let ((?x4213 (ite (<= 4 ?x2437) 3 ?x2437)))
 (let ((?x2745 (+ (+ (* (div ?x3550 146097) 400) (* ?x4712 100)) (* (div ?x3355 1461) 4))))
 (let ((?x1264 (+ (+ ?x2745 ?x4213) 1)))
 (let (($x2575 (or (and (= (mod ?x1264 4) 0) (and (distinct (mod ?x1264 100) 0) true)) (= (mod ?x1264 400) 0))))
 (let ((?x2307 (- ?x1565 (* ?x4213 365))))
 (let ((?x1129 (ite $x2575 31 31)))
 (let (($x2000 (>= ?x2307 ?x1129)))
 (let ((?x2554 (ite $x2000 (+ (- ?x2307 ?x1129) 1) (+ (- ?x2307 (ite $x2575 0 0)) 1))))
 (let ((?x4581 (ite $x2575 60 59)))
 (let (($x1211 (>= ?x2307 ?x4581)))
 (let ((?x1863 (ite $x2575 91 90)))
 (let (($x4185 (>= ?x2307 ?x1863)))
 (let ((?x2597 (ite $x4185 (+ (- ?x2307 ?x1863) 1) (ite $x1211 (+ (- ?x2307 ?x4581) 1) ?x2554))))
 (let ((?x1753 (ite $x2575 121 120)))
 (let (($x4628 (>= ?x2307 ?x1753)))
 (let ((?x4679 (ite $x2575 152 151)))
 (let (($x4767 (>= ?x2307 ?x4679)))
 (let ((?x2770 (ite $x4767 (+ (- ?x2307 ?x4679) 1) (ite $x4628 (+ (- ?x2307 ?x1753) 1) ?x2597))))
 (let ((?x1458 (ite $x2575 182 181)))
 (let (($x2471 (>= ?x2307 ?x1458)))
 (let ((?x1130 (ite $x2575 213 212)))
 (let (($x578 (>= ?x2307 ?x1130)))
 (let ((?x3341 (ite $x578 (+ (- ?x2307 ?x1130) 1) (ite $x2471 (+ (- ?x2307 ?x1458) 1) ?x2770))))
 (let ((?x520 (ite $x2575 244 243)))
 (let (($x3677 (>= ?x2307 ?x520)))
 (let ((?x4295 (ite $x2575 274 273)))
 (let (($x1926 (>= ?x2307 ?x4295)))
 (let ((?x577 (ite $x1926 (+ (- ?x2307 ?x4295) 1) (ite $x3677 (+ (- ?x2307 ?x520) 1) ?x3341))))
 (let ((?x2398 (ite $x2575 305 304)))
 (let (($x2012 (>= ?x2307 ?x2398)))
 (let ((?x4832 (ite $x2575 335 334)))
 (let (($x2637 (>= ?x2307 ?x4832)))
 (let ((?x2285 (ite $x2637 (+ (- ?x2307 ?x4832) 1) (ite $x2012 (+ (- ?x2307 ?x2398) 1) ?x577))))
 (let (($x2757 (= 0 1)))
 (let ((?x4729 (ite $x4628 5 (ite $x4185 4 (ite $x1211 3 (ite $x2000 2 1))))))
 (let ((?x2886 (ite $x3677 9 (ite $x578 8 (ite $x2471 7 (ite $x4767 6 ?x4729))))))
 (let ((?x4561 (ite $x2637 12 (ite $x2012 11 (ite $x1926 10 ?x2886)))))
 (and (= (ite $x2757 ?x3116 ?x1264) 2020) (= (ite $x2757 ?x3496 ?x4561) 3) (= (ite $x2757 ?x1919 ?x2285) 1)))))))))))))))))))))))))))))))))))))))))))))))))))))))))))))))
(assert
 (let (($x3388 (= x_day 29)))
(let (($x2837 (= x_month 2)))
(let (($x3950 (= x_year 2020)))
(and $x3950 $x2837 $x3388)))))
(check-sat)
